Name:		mgval_0.50_5C
Optimal value:	-1
#Vehicles:	5
Capacity:	130
Depot Node:	1
#Nodes:		34
#Edges:		17
#Arcs:		81
#Required N:	26
#Required E:	8
#Required A:	40

ReN.	DEMAND	S. COST
N3	3	3
N4	29	29
N5	3	3
N6	5	5
N7	18	18
N8	7	7
N9	4	4
N10	15	15
N12	23	23
N13	7	7
N14	3	3
N15	8	8
N16	29	29
N17	15	15
N19	7	7
N20	18	18
N21	11	11
N22	18	18
N25	13	13
N26	5	5
N27	16	16
N28	9	9
N29	15	15
N30	6	6
N31	23	23
N34	2	2

ReE.	FROM N.	TO N.	T. COST	DEMAND	S. COST
E10	8	14	2	5	5
E11	6	18	9	18	18
E12	24	34	10	16	16
E13	9	10	3	7	7
E14	8	9	7	8	8
E15	13	14	4	8	8
E16	28	33	3	8	8
E17	3	10	2	8	8

EDGE	FROM N.	TO N.	T. COST
NrE1	20	26	3
NrE2	28	34	2
NrE3	12	19	4
NrE4	29	30	4
NrE5	10	11	8
NrE6	4	10	4
NrE7	12	18	5
NrE8	21	27	7
NrE9	22	23	1

ReA.	FROM N.	TO N.	T. COST	DEMAND	S. COST
A42	18	29	9	7	7
A43	13	12	2	4	4
A44	15	21	4	6	6
A45	26	25	9	8	8
A46	28	23	5	3	3
A47	11	4	10	8	8
A48	3	9	6	3	3
A49	11	5	4	3	3
A50	14	20	3	5	5
A51	21	15	4	6	6
A52	18	19	7	7	7
A53	2	13	9	8	8
A54	16	10	2	4	4
A55	2	3	5	3	3
A56	23	24	5	3	3
A57	32	27	5	3	3
A58	19	25	5	6	6
A59	19	13	6	4	4
A60	9	15	5	4	4
A61	13	2	9	8	8
A62	30	31	6	4	4
A63	6	7	9	6	6
A64	2	8	8	6	6
A65	6	12	7	5	5
A66	1	2	10	11	11
A67	33	32	5	10	10
A68	20	21	2	3	3
A69	25	29	7	9	9
A70	12	6	7	6	6
A71	11	24	15	19	19
A72	19	20	6	6	6
A73	33	34	1	2	2
A74	24	23	5	4	4
A75	15	22	9	7	7
A76	21	22	5	4	4
A77	23	28	5	2	2
A78	28	22	4	4	4
A79	24	17	9	7	7
A80	3	2	5	3	3
A81	15	14	1	3	3

ARC	FROM N.	TO N.	T. COST
NrA1	14	15	1
NrA2	8	2	8
NrA3	4	11	10
NrA4	27	32	5
NrA5	4	3	3
NrA6	5	11	4
NrA7	31	30	6
NrA8	20	14	3
NrA9	13	19	6
NrA10	1	6	2
NrA11	29	18	9
NrA12	17	24	9
NrA13	6	1	2
NrA14	22	28	4
NrA15	26	27	4
NrA16	3	4	3
NrA17	13	7	5
NrA18	16	17	5
NrA19	19	18	7
NrA20	22	15	9
NrA21	25	26	9
NrA22	25	30	5
NrA23	9	3	6
NrA24	22	21	5
NrA25	12	13	2
NrA26	10	16	2
NrA27	15	9	5
NrA28	27	28	10
NrA29	34	33	1
NrA30	30	25	5
NrA31	31	26	9
NrA32	15	16	5
NrA33	16	15	5
NrA34	7	13	5
NrA35	17	11	7
NrA36	4	5	9
NrA37	7	6	9
NrA38	16	23	9
NrA39	31	32	3
NrA40	20	19	6
NrA41	1	7	8
